data/solutions/recovery/wellformed/moderate/flexible/wellformed_moderate_instance76/23.sol
Elapsed time: 0.09
Upper bound: 2089.0
Planning weighted value: 176877.0
C[0]=2089.0
C[1]=1938.0
C[2]=1807.0
C[3]=1792.0
C[4]=1655.0
C[5]=0.0
y[0]=2
y[1]=1
y[2]=4
y[3]=2
y[4]=3
y[5]=3
y[6]=1
y[7]=2
y[8]=1
y[9]=0
y[10]=4
y[11]=4
y[12]=1
y[13]=3
y[14]=3
y[15]=2
y[16]=0
y[17]=0
y[18]=2
y[19]=3
