data/solutions/recovery/wellformed/moderate/flexible/wellformed_moderate_instance76/23.log

Log started (V12.6.3.0) Fri Apr 20 20:56:41 2018

New value for default parallel thread count: 1

Problem '/tmp/tmppWMKHs.pyomo.lp' read.
Read time = 0.00 sec. (0.03 ticks)

Problem name         : /tmp/tmppWMKHs.pyomo.lp
Objective sense      : Minimize
Variables            :     128  [Nneg: 1,  Binary: 120,  General Integer: 7]
Objective nonzeros   :       1
Linear constraints   :      54  [Less: 26,  Equal: 28]
  Nonzeros           :    2073
  RHS nonzeros       :      41

Variables            : Min LB: 0.000000         Max UB: 1.000000       
Objective nonzeros   : Min   : 1.000000         Max   : 1.000000       
Linear constraints   :
  Nonzeros           : Min   : 1.000000         Max   : 971.0000       
  RHS nonzeros       : Min   : 1.000000         Max   : 2.000000       
Tried aggregator 2 times.
MIP Presolve eliminated 23 rows and 26 columns.
Aggregator did 6 substitutions.
Reduced MIP has 25 rows, 96 columns, and 263 nonzeros.
Reduced MIP has 95 binaries, 1 generals, 0 SOSs, and 0 indicators.
Presolve time = 0.00 sec. (0.76 ticks)
Found incumbent of value 9281.000000 after 0.00 sec. (0.93 ticks)
Probing time = 0.00 sec. (0.08 ticks)
Cover probing fixed 0 vars, tightened 3 bounds.
Tried aggregator 1 time.
Reduced MIP has 25 rows, 96 columns, and 263 nonzeros.
Reduced MIP has 95 binaries, 1 generals, 0 SOSs, and 0 indicators.
Presolve time = 0.00 sec. (0.18 ticks)
Probing time = 0.00 sec. (0.06 ticks)
Clique table members: 19.
MIP emphasis: balance optimality and feasibility.
MIP search method: dynamic search.
Parallel mode: none, using 1 thread.
Root relaxation solution time = 0.00 sec. (0.10 ticks)

        Nodes                                         Cuts/
   Node  Left     Objective  IInf  Best Integer    Best Bound    ItCnt     Gap

*     0+    0                         9281.0000      971.0000            89.54%
      0     0     1856.2000    10     9281.0000     1856.2000       15   80.00%
*     0+    0                         2199.0000     1856.2000            15.59%
      0     0     1918.5634     7     2199.0000       Cuts: 8       31   12.75%
*     0+    0                         2089.0000     1918.5634             8.16%
      0     0     2017.4001     7     2089.0000       Cuts: 4       38    3.43%

Repeating presolve.
Tried aggregator 2 times.
MIP Presolve eliminated 6 rows and 50 columns.
Aggregator did 2 substitutions.
Reduced MIP has 17 rows, 44 columns, and 119 nonzeros.
Reduced MIP has 43 binaries, 1 generals, 0 SOSs, and 0 indicators.
Presolve time = 0.00 sec. (0.13 ticks)
Probing time = 0.00 sec. (0.03 ticks)
Tried aggregator 1 time.
Reduced MIP has 17 rows, 44 columns, and 119 nonzeros.
Reduced MIP has 43 binaries, 1 generals, 0 SOSs, and 0 indicators.
Presolve time = 0.00 sec. (0.07 ticks)
Represolve time = 0.00 sec. (0.33 ticks)
Probing time = 0.00 sec. (0.03 ticks)
Clique table members: 18.
MIP emphasis: balance optimality and feasibility.
MIP search method: dynamic search.
Parallel mode: none, using 1 thread.
Root relaxation solution time = 0.00 sec. (0.07 ticks)

        Nodes                                         Cuts/
   Node  Left     Objective  IInf  Best Integer    Best Bound    ItCnt     Gap

*     0+    0                         2089.0000     2017.4001             3.43%
      0     0        cutoff           2089.0000                     46    0.00%

Mixed integer rounding cuts applied:  2
Gomory fractional cuts applied:  2

Root node processing (before b&c):
  Real time             =    0.01 sec. (3.63 ticks)
Sequential b&c:
  Real time             =    0.00 sec. (0.00 ticks)
                          ------------
Total (root+branch&cut) =    0.01 sec. (3.63 ticks)

Solution pool: 3 solutions saved.

MIP - Integer optimal solution:  Objective =  2.0890000000e+03
Solution time =    0.01 sec.  Iterations = 46  Nodes = 0
Deterministic time = 3.63 ticks  (512.55 ticks/sec)


Incumbent solution written to file '/tmp/tmp_3QP3P.cplex.sol'.
